5
20
49
40	23
1	3	7	11	5	6	15	4	
2	2	5	2	6	4	
3	2	14	3	8	4	
4	1	5	5	
5	1	5	6	
6	2	8	6	21	3	
7	3	11	2	19	4	7	11	
8	4	14	4	19	4	14	3	7	10	
9	1	21	2	
10	3	5	3	17	3	5	4	
11	2	5	9	6	9	
12	1	6	3	
13	1	4	8	
14	2	8	5	18	4	
15	4	10	3	22	3	7	6	6	2	
16	4	8	5	8	3	7	4	4	3	
17	4	6	9	22	4	4	5	21	2	
18	4	23	4	5	6	5	5	20	4	
19	1	5	4	
20	4	7	11	8	3	7	10	5	7	
